unknown
(model
; cardinality of BoundSet is 4
(declare-sort BoundSet 0)
; rep: @uc_BoundSet_0
; rep: @uc_BoundSet_1
; rep: @uc_BoundSet_2
; rep: @uc_BoundSet_3
(declare-sort UnboundSet 0)
(define-fun a () BoundSet @uc_BoundSet_0)
(define-fun IsBald ((BOUND_VARIABLE_451 BoundSet)) Bool true)
(define-fun HasHandOnShoulder ((BOUND_VARIABLE_451 BoundSet)) Bool true)
(define-fun IsTouching ((BOUND_VARIABLE_459 BoundSet) (BOUND_VARIABLE_460 BoundSet)) Bool false)
)
